
Gurobi 7.5.2 (linux64) logging started Sat Jul  7 16:20:04 2018

Changed value of parameter LogFile to result/ilp/simNo_4-n_100-m_40-s_4-minVAF_0.05-cov_10000-k_1-fn_0.10-fp_0.0001-na_0.15.ILP.gurobiSolverLog
   Prev: gurobi.log  Default: 
Changed value of parameter TimeLimit to 86400.0
   Prev: 1e+100  Min: 0.0  Max: 1e+100  Default: 1e+100
Optimize a model with 639293 rows, 10765 columns and 1940420 nonzeros
Variable types: 0 continuous, 10765 integer (10765 binary)
Coefficient statistics:
  Matrix range     [4e-04, 4e+00]
  Objective range  [4e-01, 9e+00]
  Bounds range     [1e+00, 1e+00]
  RHS range        [3e-01, 2e+00]
Found heuristic solution: objective -20190.15428
Presolve removed 124505 rows and 983 columns (presolve time = 5s) ...
Presolve removed 125446 rows and 983 columns (presolve time = 11s) ...
Presolve removed 125984 rows and 983 columns (presolve time = 17s) ...
Presolve removed 179784 rows and 1521 columns (presolve time = 20s) ...
Presolve removed 179784 rows and 1521 columns
Presolve time: 24.11s
Presolved: 459509 rows, 9244 columns, 1384362 nonzeros
Variable types: 0 continuous, 9244 integer (9244 binary)
Presolved: 9244 rows, 468753 columns, 1393606 nonzeros

Presolve removed 9244 rows and 468753 columns

Root simplex log...

Iteration    Objective       Primal Inf.    Dual Inf.      Time
       0    7.2102992e+00   0.000000e+00   9.642000e+04     29s
    8579   -1.5021559e+02   0.000000e+00   1.174925e+06     30s
   25867   -3.5662889e+02   0.000000e+00   3.131188e+05     35s
   36618   -3.9104697e+02   0.000000e+00   4.095431e+04     40s
   38936   -3.9080030e+02   0.000000e+00   0.000000e+00     44s
   38936   -3.9080030e+02   0.000000e+00   0.000000e+00     45s

Root relaxation: objective -3.908003e+02, 38936 iterations, 18.46 seconds
Total elapsed time = 45.71s
Total elapsed time = 131.32s
Total elapsed time = 220.12s
Total elapsed time = 276.88s

    Nodes    |    Current Node    |     Objective Bounds      |     Work
 Expl Unexpl |  Obj  Depth IntInf | Incumbent    BestBd   Gap | It/Node Time

     0     0 -390.80030    0  989 -20190.154 -390.80030  98.1%     -  309s
H    0     0                    -458.2314121 -390.80030  14.7%     -  312s
H    0     0                    -429.9538478 -390.80030  9.11%     -  317s
     0     0 -395.15069    0  931 -429.95385 -395.15069  8.09%     -  470s
H    0     0                    -425.6034533 -395.15069  7.16%     -  488s
     0     0 -395.15069    0  935 -425.60345 -395.15069  7.16%     -  500s
     0     0 -397.32589    0  844 -425.60345 -397.32589  6.64%     -  992s
     0     0 -397.73035    0  852 -425.60345 -397.73035  6.55%     - 1558s
     0     0 -398.03285    0  862 -425.60345 -398.03285  6.48%     - 1704s
     0     0 -398.26182    0  875 -425.60345 -398.26182  6.42%     - 2862s
     0     0 -398.36908    0  900 -425.60345 -398.36908  6.40%     - 2915s
     0     0 -398.41349    0  808 -425.60345 -398.41349  6.39%     - 2938s
     0     0 -398.41349    0  825 -425.60345 -398.41349  6.39%     - 2962s
     0     0 -399.50109    0  831 -425.60345 -399.50109  6.13%     - 5947s
     0     0 -399.50109    0  827 -425.60345 -399.50109  6.13%     - 5952s
     0     0 -399.50109    0  983 -425.60345 -399.50109  6.13%     - 5969s
     0     0 -399.50109    0  973 -425.60345 -399.50109  6.13%     - 5977s
     0     0 -400.04489    0  954 -425.60345 -400.04489  6.01%     - 6907s
     0     0 -400.04489    0  970 -425.60345 -400.04489  6.01%     - 6922s
     0     0 -400.04489    0 1000 -425.60345 -400.04489  6.01%     - 6973s
     0     0 -400.58868    0  995 -425.60345 -400.58868  5.88%     - 7542s
     0     0 -400.58868    0  997 -425.60345 -400.58868  5.88%     - 7546s
     0     0 -401.67628    0  740 -425.60345 -401.67628  5.62%     - 10817s
     0     0 -402.22008    0  939 -425.60345 -402.22008  5.49%     - 11873s
     0     0 -402.22008    0  921 -425.60345 -402.22008  5.49%     - 11887s
     0     0 -403.30768    0  950 -425.60345 -403.30768  5.24%     - 14245s
     0     0 -403.30768    0 1100 -425.60345 -403.30768  5.24%     - 14263s
     0     0 -403.30768    0 1105 -425.60345 -403.30768  5.24%     - 14281s
     0     0 -404.57655    0  916 -425.60345 -404.57655  4.94%     - 17068s
     0     0 -404.57655    0  904 -425.60345 -404.57655  4.94%     - 17091s
     0     0 -404.57655    0  862 -425.60345 -404.57655  4.94%     - 17110s
     0     0 -404.69739    0  860 -425.60345 -404.69739  4.91%     - 17719s
     0     0 -404.69739    0  862 -425.60345 -404.69739  4.91%     - 17722s
     0     0 -404.93908    0  903 -425.60345 -404.93908  4.86%     - 18677s
H    0     0                    -423.4282560 -404.93908  4.37%     - 18682s
     0     0 -405.17214    0  932 -423.42826 -405.17214  4.31%     - 18859s
     0     0 -405.17214    0  933 -423.42826 -405.17214  4.31%     - 18864s
     0     0 -406.25973    0  904 -423.42826 -406.25973  4.05%     - 33967s
     0     0 -406.25973    0 1025 -423.42826 -406.25973  4.05%     - 33993s
     0     0 -408.35725    0 1090 -423.42826 -408.35725  3.56%     - 46309s
     0     0 -408.92694    0  887 -423.42826 -408.92694  3.42%     - 46829s
     0     0 -408.92694    0  808 -423.42826 -408.92694  3.42%     - 46844s
     0     0 -408.92694    0  950 -423.42826 -408.92694  3.42%     - 46903s
     0     0 -408.92694    0  994 -423.42826 -408.92694  3.42%     - 46930s
     0     0 -408.92694    0 1092 -423.42826 -408.92694  3.42%     - 46969s
     0     0 -409.28947    0  995 -423.42826 -409.28947  3.34%     - 48083s
     0     0 -409.28947    0 1048 -423.42826 -409.28947  3.34%     - 48091s
     0     0 -409.28947    0  736 -423.42826 -409.28947  3.34%     - 49591s
     0     0 -409.74264    0  981 -423.42826 -409.74264  3.23%     - 51991s
     0     0 -410.01454    0 1008 -423.42826 -410.01454  3.17%     - 52666s
     0     0 -410.01454    0  997 -423.42826 -410.01454  3.17%     - 52671s
     0     0 -410.05079    0 1026 -423.42826 -410.05079  3.16%     - 52744s
     0     0 -410.64897    0 1050 -423.42826 -410.64897  3.02%     - 54662s
     0     0 -410.64897    0 1069 -423.42826 -410.64897  3.02%     - 54673s
     0     0 -410.85115    0 1080 -423.42826 -410.85115  2.97%     - 54935s
     0     0 -410.85115    0 1095 -423.42826 -410.85115  2.97%     - 54961s
     0     0 -412.11723    0 1070 -423.42826 -412.11723  2.67%     - 55628s
     0     0 -412.11723    0 1078 -423.42826 -412.11723  2.67%     - 55640s
     0     0 -412.55227    0  724 -423.42826 -412.55227  2.57%     - 58058s
     0     0 -412.55227    0  723 -423.42826 -412.55227  2.57%     - 58067s
     0     0 -412.73354    0  739 -423.42826 -412.73354  2.53%     - 59095s
     0     0 -412.76979    0  752 -423.42826 -412.76979  2.52%     - 59143s
     0     0 -412.78124    0  749 -423.42826 -412.78124  2.51%     - 59174s
     0     0 -412.78124    0  752 -423.42826 -412.78124  2.51%     - 59183s
     0     0 -413.63987    0  731 -423.42826 -413.63987  2.31%     - 63712s
     0     0 -413.69166    0  694 -423.42826 -413.69166  2.30%     - 63822s
     0     0 -413.76071    0  684 -423.42826 -413.76071  2.28%     - 64027s
     0     0 -413.76071    0  681 -423.42826 -413.76071  2.28%     - 64034s
     0     0 -414.18367    0  647 -423.42826 -414.18367  2.18%     - 66277s
     0     0 -414.18367    0  653 -423.42826 -414.18367  2.18%     - 66292s
     0     0 -414.61298    0  609 -423.42826 -414.61298  2.08%     - 66739s
     0     0 -414.61298    0  997 -423.42826 -414.61298  2.08%     - 66803s
     0     0 -414.61298    0  820 -423.42826 -414.61298  2.08%     - 66807s
     0     0 -414.72747    0  939 -423.42826 -414.72747  2.05%     - 66809s
     0     0 -414.72747    0  776 -423.42826 -414.72747  2.05%     - 66809s
     0     0 -414.72747    0  766 -423.42826 -414.72747  2.05%     - 66811s
     0     0 -414.72747    0  622 -423.42826 -414.72747  2.05%     - 66811s
     0     0 -414.72747    0  643 -423.42826 -414.72747  2.05%     - 66813s
     0     0 -414.72747    0  638 -423.42826 -414.72747  2.05%     - 66814s
     0     0 -415.08020    0  695 -423.42826 -415.08020  1.97%     - 66815s
     0     0 -415.16251    0  700 -423.42826 -415.16251  1.95%     - 66816s
     0     0 -415.23728    0  693 -423.42826 -415.23728  1.93%     - 66816s
     0     0 -415.24265    0  699 -423.42826 -415.24265  1.93%     - 66817s
     0     0 -415.45253    0  615 -423.42826 -415.45253  1.88%     - 66824s
     0     0 -415.45253    0  994 -423.42826 -415.45253  1.88%     - 66831s
     0     0 -415.45253    0  960 -423.42826 -415.45253  1.88%     - 66833s
     0     0 -415.45253    0  565 -423.42826 -415.45253  1.88%     - 66834s
     0     0 -415.45253    0  641 -423.42826 -415.45253  1.88%     - 66835s
     0     0 -415.45253    0  632 -423.42826 -415.45253  1.88%     - 66835s
     0     0 -416.13495    0  663 -423.42826 -416.13495  1.72%     - 66836s
     0     0 -416.21251    0  677 -423.42826 -416.21251  1.70%     - 66837s
     0     0 -416.21758    0  685 -423.42826 -416.21758  1.70%     - 66837s
     0     0 -416.24702    0  673 -423.42826 -416.24702  1.70%     - 66837s
     0     0 -416.28685    0  655 -423.42826 -416.28685  1.69%     - 66837s
     0     0 -416.28915    0  657 -423.42826 -416.28915  1.69%     - 66838s
     0     0 -416.31919    0  630 -423.42826 -416.31919  1.68%     - 66838s
     0     0 -416.32819    0  627 -423.42826 -416.32819  1.68%     - 66839s
     0     0 -416.33963    0  670 -423.42826 -416.33963  1.67%     - 66839s
     0     0 -416.34276    0  671 -423.42826 -416.34276  1.67%     - 66840s
     0     0 -416.34701    0  671 -423.42826 -416.34701  1.67%     - 66840s
     0     0 -416.34701    0  671 -423.42826 -416.34701  1.67%     - 66840s
     0     0 -416.58144    0  687 -423.42826 -416.58144  1.62%     - 66841s
     0     0 -416.60980    0  686 -423.42826 -416.60980  1.61%     - 66842s
     0     0 -416.62013    0  672 -423.42826 -416.62013  1.61%     - 66842s
     0     0 -416.62013    0  674 -423.42826 -416.62013  1.61%     - 66842s
     0     0 -416.72111    0  672 -423.42826 -416.72111  1.58%     - 66843s
     0     0 -416.73832    0  664 -423.42826 -416.73832  1.58%     - 66844s
     0     0 -416.73832    0  664 -423.42826 -416.73832  1.58%     - 66844s
     0     0 -416.85725    0  690 -423.42826 -416.85725  1.55%     - 66845s
     0     0 -416.86404    0  699 -423.42826 -416.86404  1.55%     - 66846s
     0     0 -416.86404    0  699 -423.42826 -416.86404  1.55%     - 66846s
     0     0 -417.10178    0  659 -423.42826 -417.10178  1.49%     - 66847s
     0     0 -417.17431    0  678 -423.42826 -417.17431  1.48%     - 66848s
     0     0 -417.21499    0  698 -423.42826 -417.21499  1.47%     - 66848s
     0     0 -417.21621    0  706 -423.42826 -417.21621  1.47%     - 66848s
     0     0 -417.38428    0  708 -423.42826 -417.38428  1.43%     - 66849s
     0     0 -417.49178    0  704 -423.42826 -417.49178  1.40%     - 66850s
     0     0 -417.51172    0  707 -423.42826 -417.51172  1.40%     - 66850s
     0     0 -417.55060    0  714 -423.42826 -417.55060  1.39%     - 66850s
     0     0 -417.55447    0  718 -423.42826 -417.55447  1.39%     - 66851s
     0     0 -417.86942    0  671 -423.42826 -417.86942  1.31%     - 66852s
     0     0 -417.90986    0  728 -423.42826 -417.90986  1.30%     - 66853s
     0     0 -417.91902    0  731 -423.42826 -417.91902  1.30%     - 66853s
     0     0 -417.92849    0  732 -423.42826 -417.92849  1.30%     - 66853s
     0     0 -417.92849    0  733 -423.42826 -417.92849  1.30%     - 66854s
     0     0 -418.18547    0  706 -423.42826 -418.18547  1.24%     - 66855s
     0     0 -418.26328    0  700 -423.42826 -418.26328  1.22%     - 66855s
     0     0 -418.26671    0  707 -423.42826 -418.26671  1.22%     - 66855s
     0     0 -418.38138    0  713 -423.42826 -418.38138  1.19%     - 66856s
     0     0 -418.39993    0  701 -423.42826 -418.39993  1.19%     - 66857s
     0     0 -418.40553    0  704 -423.42826 -418.40553  1.19%     - 66857s
     0     0 -418.40599    0  703 -423.42826 -418.40599  1.19%     - 66857s
     0     0 -418.40599    0  710 -423.42826 -418.40599  1.19%     - 66858s
     0     0 -418.40599    0  711 -423.42826 -418.40599  1.19%     - 66859s
     0     0 -418.40599    0  626 -423.42826 -418.40599  1.19%     - 66863s
     0     0 -418.40599    0  652 -423.42826 -418.40599  1.19%     - 66864s
     0     0 -418.45544    0  576 -423.42826 -418.45544  1.17%     - 66866s
     0     0 -418.45843    0  668 -423.42826 -418.45843  1.17%     - 66866s
     0     0 -418.52370    0  564 -423.42826 -418.52370  1.16%     - 66867s
     0     0 -418.54982    0  650 -423.42826 -418.54982  1.15%     - 66868s
     0     0 -418.55608    0  570 -423.42826 -418.55608  1.15%     - 66868s
     0     0 -418.55608    0  605 -423.42826 -418.55608  1.15%     - 66868s
     0     0 -418.55608    0  658 -423.42826 -418.55608  1.15%     - 66869s
     0     0 -418.55608    0  658 -423.42826 -418.55608  1.15%     - 66869s
     0     0 -418.63618    0  593 -423.42826 -418.63618  1.13%     - 66870s
     0     0 -418.74670    0  688 -423.42826 -418.74670  1.11%     - 66871s
     0     0 -418.76499    0  663 -423.42826 -418.76499  1.10%     - 66871s
     0     0 -418.78784    0  571 -423.42826 -418.78784  1.10%     - 66871s
     0     0 -418.79537    0  659 -423.42826 -418.79537  1.09%     - 66872s
     0     0 -418.80263    0  670 -423.42826 -418.80263  1.09%     - 66872s
     0     0 -418.81475    0  664 -423.42826 -418.81475  1.09%     - 66872s
     0     0 -418.81485    0  665 -423.42826 -418.81485  1.09%     - 66872s
     0     0 -418.81485    0  568 -423.42826 -418.81485  1.09%     - 66884s
     0     2 -418.91568    0  567 -423.42826 -418.91568  1.07%     - 66888s

Cutting planes:
  Gomory: 6
  MIR: 1
  Zero half: 81

Explored 27 nodes (2084518 simplex iterations) in 66889.85 seconds
Thread count was 1 (of 80 available processors)

Solution count 6: -423.428 -423.428 -425.603 ... -20190.2

Optimal solution found (tolerance 1.00e-04)
Best objective -4.234282560289e+02, best bound -4.234282560289e+02, gap 0.0000%
